VRPTWMS/instances/mip/freight/4/N4-C_DV10-C_SV50_F10_5_No_1.log

Gurobi 6.0.4 (win64) logging started 06/18/15 16:07:38

Read LP format model from file C:\MT\repository\VRPTWMS\instances\mip\freight\N4-C_DV10-C_SV50_F10_5_No_1.lp
Reading time = 0.00 seconds
(null): 113 rows, 81 columns, 399 nonzeros
Optimize a model with 113 rows, 81 columns and 399 nonzeros
Model has 100 quadratic constraints
Coefficient statistics:
  Matrix range    [1e+00, 1e+06]
  Objective range [1e+05, 1e+07]
  Bounds range    [1e+00, 1e+06]
  RHS range       [1e+00, 1e+06]
Presolve removed 19 rows and 9 columns
Presolve time: 0.01s
Presolved: 356 rows, 211 columns, 1437 nonzeros
Variable types: 123 continuous, 88 integer (60 binary)
Found heuristic solution: objective 4.222240e+07
Found heuristic solution: objective 1.135880e+07

Root relaxation: objective 5.561590e+06, 45 iterations, 0.00 seconds

    Nodes    |    Current Node    |     Objective Bounds      |     Work
 Expl Unexpl |  Obj  Depth IntInf | Incumbent    BestBd   Gap | It/Node Time

     0     0 5561590.22    0   19 1.1359e+07 5561590.22  51.0%     -    0s
     0     0 1.1066e+07    0   11 1.1359e+07 1.1066e+07  2.58%     -    0s
     0     0 1.1073e+07    0   14 1.1359e+07 1.1073e+07  2.52%     -    0s
     0     0     cutoff    0      1.1359e+07 1.1359e+07  0.00%     -    0s

Explored 0 nodes (145 simplex iterations) in 0.03 seconds
Thread count was 2 (of 4 available processors)

Optimal solution found (tolerance 1.00e-04)
Best objective 1.135880000000e+07, best bound 1.135880000000e+07, gap 0.0%
k_c1	50000.0
k_c2	100000.0
k_c3	80000.0
k_c4	30000.0
k_dN	-0.0
kDash_c1	30000.0
kDash_c2	80000.0
kDash_c3	50000.0
kDash_c4	-0.0
o_1	-0.0
o_2	-0.0
o_3	-0.0
o_4	-0.0
p_1	-0.0
p_2	-0.0
p_3	-0.0
p_4	-0.0
phi_c1	44174.0
phi_c2	87938.0
phi_c3	71041.0
phi_c4	22753.0
phi_d0	100000.0
phi_dN	-0.0
pi_c1	-0.0
pi_c2	-0.0
pi_c3	-0.0
pi_c4	-0.0
pi_dN	-0.0
tauD_c1	450000.0
tauD_c2	100000.0
tauD_c3	259600.0
tauD_c4	610050.0
tauD_d0	-0.0
tauD_dN	1000000.0
tauS_c1	-0.0
tauS_c2	-0.0
tauS_c3	-0.0
tauS_c4	-0.0
tauS_d0	-0.0
tauS_dN	-0.0
x_c1_c4	1.0
x_c2_c3	1.0
x_c3_c1	1.0
x_c4_dN	1.0
x_d0_c2	1.0
